<number of tasks>
20

<cycle time>
1000

<order strength>
0,8


<task times>
1 96
2 215
3 149
4 131
5 139
6 499
7 51
8 439
9 228
10 476
11 429
12 189
13 204
14 130
15 475
16 200
17 450
18 267
19 515
20 67

<precedence relations>
1,2
1,3
2,5
3,4
4,6
4,7
5,6
5,8
6,9
7,8
8,11
8,12
9,10
9,11
9,15
10,13
10,14
11,13
11,14
12,14
12,15
13,16
14,18
15,16
15,17
16,19
16,20
18,20

<end>
